NAME: tsp_56
COMMENT: Random TSP instance
TYPE: TSP
DIMENSION: 50
EDGE_WEIGHT_TYPE: EUC_2D
NODE_COORD_SECTION
1 749 9
2 807 640
3 37 482
4 7 735
5 680 353
6 402 112
7 548 127
8 265 846
9 13 829
10 947 774
11 460 568
12 738 662
13 358 457
14 18 856
15 286 424
16 96 808
17 933 614
18 150 884
19 863 447
20 578 411
21 474 900
22 899 339
23 474 916
24 15 734
25 846 621
26 913 377
27 934 150
28 960 681
29 350 809
30 644 671
31 229 432
32 963 269
33 245 976
34 309 225
35 550 835
36 441 322
37 876 326
38 861 497
39 962 182
40 207 3
41 197 506
42 93 744
43 898 484
44 265 819
45 248 446
46 685 76
47 572 619
48 333 393
49 564 8
50 711 7
